problems/csplib-prob056/sonet-models/noch/O2/minion/model_2-s1ring15-solution000001.solution
language Essence 1.3

letting network be mset({}, {1, 2, 3, 4}, {1, 7}, {3, 5, 6, 7})
$ Visualisation for network
$ 
$ 1 2 3 4
$ 1 7
$ 3 5 6 7

